Quartz beta                             
   1.00000000000000     
     5.0338501930000001    0.0000000000000000    0.0000000000000000
    -2.5169250965000001    4.3594421460000001    0.0000000000000000
     0.0000000000000000    0.0000000000000000   40.0000000000000000
  Si              O               H             
    10    22     4
Direct
     0.0072151618029979    0.4225625783474209    0.4359435837833256
     0.5168558833347058    0.4468482684971952    0.3905919046100861
     0.4424693411100284    0.9131224983375795    0.3457485414939239
     0.9638572256928075    0.3960458968543671    0.3002363647868728
     0.4939992049371990    0.4562258517115699    0.2552957027572554
     0.4481585213093383    0.9332836479949549    0.2102213974124706
     0.9760541364066465    0.4043799830812639    0.1652047182106144
     0.4955490300567760    0.4387550656532380    0.1195419963596918
     0.5237100473347668    0.9734870745286122    0.0743550641227832
     0.0335284619303563    0.4581081467813699    0.0287131313616667
     0.7965852799030237    0.1028879223444328    0.4560958478862091
     0.2903277237093711    0.3826333041283719    0.4222915959537676
     0.8372306669639226    0.4872883892456938    0.4048081288072340
     0.5734137254398908    0.7567500097332088    0.3717445276626469
     0.3725424663663065    0.1581185764416067    0.3647080505256214
     0.1211153970456686    0.6548364638114692    0.3293049069449148
     0.6983877405708855    0.0781287326928751    0.3165242448807453
     0.2211202207249545    0.3349291591830025    0.2830548943961047
     0.8123100721441442    0.5163525228874023    0.2723904076591363
     0.5522504337333318    0.7777615101976477    0.2393055134442020
     0.3897088503896824    0.1964886788845624    0.2262179910974046
     0.1298941121393336    0.6750361673558455    0.1931349204301278
     0.7204994266309711    0.0852066109197229    0.1824333014332898
     0.2379167226578233    0.3495522469474300    0.1483874990227415
     0.8168975776989346    0.5055921838062769    0.1364239852513045
     0.5668025263058116    0.7492432499223790    0.0999955942083343
     0.3711536858886232    0.1485131489045568    0.0939048997157086
     0.3145926154073596    0.7804364153294401    0.0427131718076752
     0.8546461649391822    0.2317414781785191    0.0599610707278551
     0.1562854382986574    0.2835159678965541    0.0039960103732709
     0.1609411872269527    0.7347891880912431    0.4595645819401626
     0.7960554149520327    0.5438500004951911    0.0090847309459244
     0.5703997234233064    0.9971619613644934    0.4583496900449761
     0.0450551797962711    0.8439876670201039    0.4608452559333829
     0.3799388014324625    0.3598102516276632    0.0042376585967827
     0.8901124322954738    0.7625430068027244    0.0034466804118103

